NAME: I8566-n45-k4
COMMENT : (Fake et al, No of trucks: 4, Optimal value: )
TYPE : CVRP
DIMENSION : 45
EDGE_WEIGHT_TYPE : EUC_2D
CAPACITY : 18
NODE_COORD_SECTION
1 953 918
2 133 116
3 678 174
4 915 467
5 386 686
6 387 602
7 46 328
8 810 26
9 466 728
10 150 601
11 765 478
12 365 518
13 357 991
14 47 622
15 424 837
16 811 251
17 312 279
18 622 133
19 764 131
20 364 850
21 231 795
22 659 120
23 764 241
24 452 197
25 696 635
26 52 360
27 650 655
28 468 638
29 549 148
30 834 74
31 131 777
32 537 500
33 865 789
34 197 299
35 481 99
36 399 791
37 392 879
38 786 651
39 504 386
40 646 877
41 65 662
42 643 642
43 844 909
44 367 357
45 347 881
DEMAND_SECTION
1 0
2 1
3 1
4 2
5 1
6 1
7 2
8 1
9 2
10 1
11 1
12 1
13 1
14 2
15 1
16 1
17 2
18 1
19 1
20 2
21 2
22 1
23 2
24 1
25 1
26 2
27 2
28 2
29 2
30 2
31 1
32 2
33 1
34 1
35 1
36 1
37 2
38 2
39 2
40 2
41 1
42 1
43 2
44 2
45 2
DEPOT_SECTION
 1
 -1
 EOF 